#insiemi

set I := telA telB;
set J := modisplay navigazione tastierini logica tx led;

#parametri

param P := telA 3 telB 6;

param maxNumProd := telA 5 telB 8;

param	     Q  :=
modisplay   10
navigazione  9
tastierini  21
logica      18
tx          12
led         10
;

param A	:	modisplay navigazione tastierini logica tx led :=
telA		1         1           2          2 	 	1  1
telB		2         0           3          2 	 	3  0
;
